experiments/sat_smt/run/sat-r/results/lydia.res
solved=true
solvingTime=2.92551898956298828125
nActions=7