experiments/sat_smt/run/sat-r/results/lydia.out
Timesteps: 1
s UNSATISFIABLE
real 0.15
user 0.02
sys 0.00
Timesteps: 2
s UNSATISFIABLE
real 0.16
user 0.03
sys 0.00
Timesteps: 3
s UNSATISFIABLE
real 0.27
user 0.11
sys 0.00
Timesteps: 4
s UNSATISFIABLE
real 0.27
user 0.17
sys 0.00
Timesteps: 5
s UNSATISFIABLE
real 0.44
user 0.31
sys 0.00
Timesteps: 6
s UNSATISFIABLE
real 0.84
user 0.71
sys 0.01
Timesteps: 7
s SATISFIABLE
real 0.63
user 0.47
sys 0.01
